results/x-long/X-n129-k18.vrp_seed-33.out
28948	1094
