results/x-long/X-n129-k18.vrp_seed-33.vrp.sol
Route #1: 15 66 89 103 75 91
Route #2: 38 118 28 127 47
Route #3: 90 44 1 23 59 18 64
Route #4: 74 117 115 122 106 5 119
Route #5: 3
Route #6: 93 39 25 84 43 30 67
Route #7: 83 109 51 120 8 37
Route #8: 78 50 52 27 113 88 86
Route #9: 102 112 72 100 108 26 123
Route #10: 54 22 46 33 21 34 2 48 6 19
Route #11: 82 124 7 9 63 20
Route #12: 126 11 85 61 41 55 40 58 101 17 110
Route #13: 32 114 73 49 92 116 95 96 12 16
Route #14: 80 68 98 4 111 94 121 87
Route #15: 60 77 35 57 13 56 62
Route #16: 107 65 105 76 79 10 104 71
Route #17: 45 29 36 81 128
Route #18: 24 125 31 97 69 42 99 14 70 53
Cost 28948.000000